DATASET = "thpack4";
INSTANCE = "026";

WIDTH = 233;
HEIGHT = 220;
LENGTH = 587;

NO_OF_SHAPES = 10;
size = [|
  86,71,41 |
  75,58,58 |
  100,81,27 |
  59,42,24 |
  69,37,30 |
  63,50,36 |
  96,72,34 |
  111,71,29 |
  102,67,53 |
  71,34,32 |
|];

verticality = [|
  0,1,1 |
  1,1,1 |
  0,0,1 |
  0,1,1 |
  0,1,1 |
  1,1,1 |
  0,0,1 |
  0,0,1 |
  1,1,1 |
  0,1,1 |
|];

box_count = [
  18,
  21,
  15,
  17,
  18,
  10,
  15,
  13,
  16,
  15,
];
